Timesteps: 1
s UNSATISFIABLE
real 0.12
user 0.01
sys 0.00
Timesteps: 2
s UNSATISFIABLE
real 0.11
user 0.02
sys 0.00
Timesteps: 3
s UNSATISFIABLE
real 0.10
user 0.03
sys 0.00
Timesteps: 4
s UNSATISFIABLE
real 0.20
user 0.09
sys 0.00
Timesteps: 5
s UNSATISFIABLE
real 0.23
user 0.14
sys 0.00
Timesteps: 6
s UNSATISFIABLE
real 0.31
user 0.24
sys 0.00
Timesteps: 7
s UNSATISFIABLE
real 0.53
user 0.43
sys 0.00
Timesteps: 8
s UNSATISFIABLE
real 0.88
user 0.77
sys 0.01
Timesteps: 9
s UNSATISFIABLE
real 2.81
user 2.70
sys 0.00
Timesteps: 10
s UNSATISFIABLE
real 5.96
user 5.81
sys 0.01
Timesteps: 11
s UNSATISFIABLE
real 5.97
user 5.81
sys 0.01
Timesteps: 12
s UNSATISFIABLE
real 1.46
user 1.30
sys 0.01
Timesteps: 13
s UNSATISFIABLE
real 2.16
user 1.98
sys 0.01
Timesteps: 14
s UNSATISFIABLE
real 2.31
user 2.09
sys 0.01
Timesteps: 15
s UNSATISFIABLE
real 8.53
user 8.28
sys 0.03
Timesteps: 16
s UNSATISFIABLE
real 4.60
user 4.37
sys 0.02
Timesteps: 17
s UNSATISFIABLE
real 7.85
user 7.58
sys 0.03
Timesteps: 18
s UNSATISFIABLE
real 8.46
user 8.18
sys 0.03
Timesteps: 19
s UNSATISFIABLE
real 9.92
user 9.62
sys 0.04
Timesteps: 20
s UNSATISFIABLE
real 10.27
user 9.94
sys 0.05
Timesteps: 21
s UNSATISFIABLE
real 9.41
user 9.08
sys 0.05
Timesteps: 22
s UNSATISFIABLE
real 11.48
user 11.14
sys 0.04
Timesteps: 23
s UNSATISFIABLE
real 10.68
user 10.31
sys 0.06
Timesteps: 24
s UNSATISFIABLE
real 13.74
user 13.34
sys 0.06
Timesteps: 25
s UNSATISFIABLE
real 14.63
user 14.21
sys 0.06
Timesteps: 26
s UNSATISFIABLE
real 14.84
user 14.41
sys 0.05
Timesteps: 27
s UNSATISFIABLE
real 15.68
user 15.25
sys 0.06
Timesteps: 28
s UNSATISFIABLE
real 16.26
user 15.82
sys 0.06
Timesteps: 29
s UNSATISFIABLE
real 21.11
user 20.62
sys 0.08
Timesteps: 30
s UNSATISFIABLE
real 26.26
user 25.74
sys 0.08
Timesteps: 31
s UNSATISFIABLE
real 30.04
user 29.50
sys 0.10
Timesteps: 32
s UNSATISFIABLE
real 31.24
user 30.69
sys 0.09
Timesteps: 33
s UNSATISFIABLE
real 76.75
user 75.26
sys 0.17
Timesteps: 34
s UNSATISFIABLE
real 94.21
user 92.60
sys 0.18
Timesteps: 35
s UNSATISFIABLE
real 73.81
user 72.52
sys 0.15
Timesteps: 36
s UNSATISFIABLE
real 102.46
user 100.89
sys 0.21
Timesteps: 37
s UNSATISFIABLE
real 183.43
user 181.30
sys 0.30
Timesteps: 38
s UNSATISFIABLE
real 302.57
user 299.73
sys 0.40
Timesteps: 39
s UNSATISFIABLE
real 373.45
user 370.19
sys 0.47
Timesteps: 40
s UNSATISFIABLE
real 498.57
user 494.57
sys 0.61
Timesteps: 41
s UNSATISFIABLE
real 372.55
user 370.31
sys 0.49
Timesteps: 42
s UNSATISFIABLE
real 575.62
user 572.56
sys 0.64
Timesteps: 43
